GLPSOL: GLPK LP/MIP Solver, v4.52
Parameter(s) specified in the command line:
 --model utils_GLPK/modelos/MTAV.mod --data utils_GLPK/datos/MTAV_pref.dat
 --output utils_GLPK/soluciones/MTAV_inter.sol --log utils_GLPK/logs/ejecucion_primaria.log
Reading model section from utils_GLPK/modelos/MTAV.mod...
utils_GLPK/modelos/MTAV.mod:22: warning: unexpected end of file; missing end statement inserted
22 lines were read
Reading data section from utils_GLPK/datos/MTAV_pref.dat...
utils_GLPK/datos/MTAV_pref.dat:12: warning: final NL missing before end of file
12 lines were read
Generating s...
Generating unicaAsignacionCoperativista_mayorIgual...
Generating unicaAsignacionCoperativista_menorIgual...
Generating unicaAsignacionCasa_mayorIgual...
Generating unicaAsignacionCasa_menorIgual...
Model has been successfully generated
GLPK Integer Optimizer, v4.52
13 rows, 9 columns, 45 non-zeros
9 integer variables, all of which are binary
Preprocessing...
12 rows, 9 columns, 36 non-zeros
9 integer variables, all of which are binary
Scaling...
 A: min|aij| =  1.000e+00  max|aij| =  1.000e+00  ratio =  1.000e+00
Problem data seem to be well scaled
Constructing initial basis...
Size of triangular part is 12
Solving LP relaxation...
GLPK Simplex Optimizer, v4.52
12 rows, 9 columns, 36 non-zeros
      0: obj =   0.000000000e+00  infeas =  6.000e+00 (0)
*     7: obj =   5.000000000e+00  infeas =  0.000e+00 (0)
*     8: obj =   5.000000000e+00  infeas =  0.000e+00 (0)
OPTIMAL LP SOLUTION FOUND
Integer optimization begins...
+     8: mip =     not found yet >=              -inf        (1; 0)
+     9: >>>>>   5.000000000e+00 >=   5.000000000e+00   0.0% (1; 0)
+     9: mip =   5.000000000e+00 >=     tree is empty   0.0% (0; 1)
INTEGER OPTIMAL SOLUTION FOUND
Time used:   0.0 secs
Memory used: 0.1 Mb (140335 bytes)
Writing MIP solution to `utils_GLPK/soluciones/MTAV_inter.sol'...
